% Escenario 4:
% - 3 plantas
% - 3 clientes
% - 3 días
% Se cambian demanda y costos, con G=60%.

np = 3;
nc = 3;
nd = 3;

nombrePlanta = ["Nuclear", "Hidroelectrica", "Termica"];
nombreCliente = ["Cliente1", "Cliente2", "Cliente3"];

costo = [30.0, 28.0, 55.0];
cap = [600, 350, 700];
pago = [100.0, 120.0, 80.0];

dem = array2d(1..nc, 1..nd, [
  90,  60, 120,
  100, 50, 150,
  200, 70, 100
]);

G = 0.60;

umbralAlto = [0.8, 0.9, 0.8];
maxDiasAlto = [1, 1, 2];
